345 5
10 10 10 10 10 

0 0 0 0 0 0 5 2 14 26 38 50 
0 0 0 0 0 0 2 3 4 
6 0 0 0 0 1 2 7 5 
4 0 0 0 0 4 2 7 6 
4 0 0 0 0 2 2 8 6 
1 0 0 0 0 1 2 12 9 
6 0 0 0 0 3 2 8 161 
6 0 0 0 0 4 3 12 11 10 
3 0 0 0 0 3 2 11 10 
3 0 0 0 0 1 1 13 
2 0 0 0 0 4 1 13 
10 0 0 0 0 2 1 13 
0 0 0 0 0 0 1 62 
0 0 0 0 0 0 3 15 23 24 
10 0 0 0 0 1 2 19 16 
8 0 0 0 0 1 3 22 17 134 
4 0 0 0 0 4 1 18 
9 0 0 0 0 4 1 20 
4 0 0 0 0 2 1 21 
1 0 0 0 0 4 1 25 
9 0 0 0 0 2 1 25 
10 0 0 0 0 1 1 25 
1 0 0 0 0 5 1 25 
5 0 0 0 0 1 1 25 
0 0 0 0 0 0 1 62 
0 0 0 0 0 0 2 27 29 
5 0 1 0 0 0 2 36 28 
3 0 3 0 0 0 3 35 32 30 
9 0 3 0 0 0 3 34 30 43 
3 0 1 0 0 0 1 31 
1 0 2 0 0 0 1 33 
8 0 2 0 0 0 1 34 
7 0 2 0 0 0 1 37 
10 0 2 0 0 0 1 37 
5 0 2 0 0 0 1 37 
10 0 7 0 0 0 1 37 
0 0 0 0 0 0 1 62 
0 0 0 0 0 0 3 39 41 42 
6 0 0 0 1 0 2 46 40 
3 0 0 0 1 0 2 44 43 
10 0 0 0 2 0 2 48 44 
7 0 0 0 3 0 2 45 43 
6 0 0 0 2 0 2 48 47 
6 0 0 0 1 0 1 45 
6 0 0 0 3 0 2 47 287 
4 0 0 0 2 0 1 47 
6 0 0 0 5 0 1 49 
10 0 0 0 5 0 1 49 
0 0 0 0 0 0 1 62 
0 0 0 0 0 0 1 51 
3 0 0 1 0 0 3 56 53 52 
2 0 0 4 0 0 4 60 59 55 315 
5 0 0 2 0 0 2 58 54 
7 0 0 5 0 0 1 55 
3 0 0 1 0 0 1 57 
7 0 0 3 0 0 1 57 
7 0 0 4 0 0 1 61 
1 0 0 2 0 0 1 61 
6 0 0 2 0 0 1 61 
2 0 0 1 0 0 1 61 
0 0 0 0 0 0 1 62 
0 0 0 0 0 0 5 63 75 87 99 111 
0 0 0 0 0 0 3 64 67 70 
9 0 0 0 0 1 2 69 65 
8 0 0 0 0 4 2 73 66 
1 0 0 0 0 2 1 68 
1 0 0 0 0 3 1 68 
4 0 0 0 0 3 2 72 71 
2 0 0 0 0 2 3 72 71 288 
9 0 0 0 0 2 1 73 
1 0 0 0 0 3 1 74 
3 0 0 0 0 1 1 74 
6 0 0 0 0 4 1 74 
0 0 0 0 0 0 1 123 
0 0 0 0 0 0 2 76 79 
6 1 0 0 0 0 3 85 78 77 
2 4 0 0 0 0 3 84 83 80 
7 1 0 0 0 0 2 83 81 
8 4 0 0 0 0 1 80 
5 1 0 0 0 0 1 81 
3 2 0 0 0 0 1 82 
4 2 0 0 0 0 1 86 
3 5 0 0 0 0 1 86 
1 2 0 0 0 0 1 86 
7 3 0 0 0 0 1 86 
0 0 0 0 0 0 1 123 
0 0 0 0 0 0 4 88 90 93 94 
7 0 0 1 0 0 2 92 89 
6 0 0 2 0 0 1 91 
2 0 0 4 0 0 1 91 
5 0 0 3 0 0 2 97 95 
10 0 0 1 0 0 2 97 95 
6 0 0 4 0 0 2 97 95 
5 0 0 2 0 0 2 97 95 
7 0 0 2 0 0 1 96 
2 0 0 3 0 0 1 98 
5 0 0 3 0 0 1 98 
0 0 0 0 0 0 1 123 
0 0 0 0 0 0 3 100 102 103 
6 0 1 0 0 0 1 101 
3 0 2 0 0 0 2 105 104 
6 0 1 0 0 0 2 106 104 
4 0 3 0 0 0 3 109 107 106 
5 0 1 0 0 0 2 109 107 
10 0 2 0 0 0 2 109 106 
7 0 1 0 0 0 1 108 
7 0 3 0 0 0 1 108 
1 0 6 0 0 0 1 110 
8 0 5 0 0 0 1 110 
0 0 0 0 0 0 1 123 
0 0 0 0 0 0 2 112 116 
7 0 1 0 0 0 3 115 114 113 
7 0 3 0 0 0 2 118 117 
6 0 2 0 0 0 2 119 118 
1 0 3 0 0 0 2 119 118 
7 0 1 0 0 0 2 119 118 
2 0 2 0 0 0 2 121 119 
3 0 4 0 0 0 2 121 120 
3 0 2 0 0 0 1 120 
7 0 2 0 0 0 1 122 
10 0 5 0 0 0 1 122 
0 0 0 0 0 0 1 123 
0 0 0 0 0 0 5 124 136 148 160 172 
0 0 0 0 0 0 5 125 127 129 132 134 
4 1 0 0 0 0 2 131 126 
5 2 0 0 0 0 1 128 
6 3 0 0 0 0 1 128 
7 4 0 0 0 0 1 130 
5 4 0 0 0 0 1 130 
5 2 0 0 0 0 1 133 
3 2 0 0 0 0 1 133 
9 2 0 0 0 0 1 133 
9 2 0 0 0 0 1 135 
10 3 0 0 0 0 1 135 
0 0 0 0 0 0 1 184 
0 0 0 0 0 0 2 137 138 
5 0 0 0 0 1 2 140 139 
1 0 0 0 0 1 1 139 
3 0 0 0 0 4 2 142 141 
3 0 0 0 0 2 2 142 141 
1 0 0 0 0 2 2 144 143 
4 0 0 0 0 2 2 144 143 
4 0 0 0 0 1 2 146 145 
3 0 0 0 0 4 1 145 
6 0 0 0 0 3 1 147 
10 0 0 0 0 5 1 147 
0 0 0 0 0 0 1 184 
0 0 0 0 0 0 2 149 151 
5 0 0 0 0 1 2 152 150 
1 0 0 0 0 2 3 158 154 153 
4 0 0 0 0 3 1 152 
5 0 0 0 0 2 2 157 154 
10 0 0 0 0 3 2 157 156 
1 0 0 0 0 1 1 155 
9 0 0 0 0 2 1 156 
4 0 0 0 0 4 1 159 
6 0 0 0 0 4 1 159 
3 0 0 0 0 3 1 159 
0 0 0 0 0 0 1 184 
0 0 0 0 0 0 2 161 162 
7 0 0 1 0 0 1 163 
4 0 0 4 0 0 1 163 
1 0 0 2 0 0 2 166 164 
7 0 0 3 0 0 2 170 165 
9 0 0 4 0 0 3 169 168 167 
2 0 0 3 0 0 3 169 168 167 
7 0 0 1 0 0 1 171 
10 0 0 1 0 0 1 171 
8 0 0 2 0 0 1 171 
2 0 0 4 0 0 1 171 
0 0 0 0 0 0 1 184 
0 0 0 0 0 0 1 173 
2 0 1 0 0 0 2 175 174 
6 0 1 0 0 0 3 178 177 176 
2 0 2 0 0 0 2 177 176 
3 0 2 0 0 0 2 180 179 
8 0 2 0 0 0 1 179 
10 0 4 0 0 0 1 179 
1 0 3 0 0 0 2 182 181 
9 0 2 0 0 0 1 181 
8 0 3 0 0 0 1 183 
4 0 5 0 0 0 1 183 
0 0 0 0 0 0 1 184 
0 0 0 0 0 0 5 185 207 229 251 263 
0 0 0 0 0 0 2 186 188 
4 0 1 0 1 0 2 192 187 
6 0 2 0 4 0 2 196 189 
3 0 2 0 2 0 2 196 189 
1 0 2 0 3 0 3 201 200 190 
8 0 3 0 3 0 3 199 193 191 
8 0 2 0 1 0 3 204 203 194 
9 0 1 0 1 0 3 205 203 195 
7 0 4 0 4 0 2 203 197 
3 0 6 0 2 0 1 195 
9 0 3 0 1 0 1 197 
4 0 2 0 3 0 2 205 203 
9 0 3 0 5 0 1 198 
9 0 1 0 2 0 1 202 
6 0 2 0 2 0 1 204 
6 0 1 0 1 0 1 205 
9 0 1 0 4 0 1 204 
6 0 2 0 4 0 1 206 
7 0 5 0 2 0 1 206 
1 0 6 0 2 0 1 206 
9 0 1 0 3 0 1 206 
0 0 0 0 0 0 1 345 
0 0 0 0 0 0 3 208 209 211 
7 1 0 1 0 0 2 216 210 
7 4 0 1 0 0 4 222 217 216 214 
10 3 0 7 0 0 2 222 212 
9 3 0 3 0 0 3 217 216 214 
8 2 0 3 0 0 2 217 213 
5 1 0 4 0 0 1 214 
10 1 0 1 0 0 1 215 
5 3 0 1 0 0 4 225 224 220 218 
10 2 0 3 0 0 4 225 221 220 219 
2 3 0 2 0 0 2 225 218 
1 2 0 3 0 0 1 219 
3 2 0 6 0 0 1 223 
8 4 0 1 0 0 1 223 
3 4 0 2 0 0 1 224 
3 3 0 2 0 0 1 224 
5 1 0 2 0 0 1 226 
10 4 0 2 0 0 1 226 
3 4 0 2 0 0 1 227 
6 2 0 3 0 0 1 228 
10 1 0 1 0 0 1 228 
0 0 0 0 0 0 1 345 
0 0 0 0 0 0 1 230 
3 0 1 0 0 1 2 249 231 
9 0 2 0 0 2 3 248 247 232 
10 0 4 0 0 3 3 246 245 233 
5 0 5 0 0 1 2 244 234 
4 0 1 0 0 1 3 243 242 235 
7 0 1 0 0 2 3 241 240 236 
5 0 3 0 0 1 1 237 
10 0 1 0 0 4 1 238 
4 0 2 0 0 2 1 239 
2 0 1 0 0 2 1 250 
3 0 1 0 0 4 1 250 
4 0 4 0 0 3 1 250 
9 0 4 0 0 8 1 250 
9 0 1 0 0 4 1 250 
3 0 4 0 0 1 1 250 
3 0 1 0 0 3 1 250 
5 0 6 0 0 2 1 250 
10 0 3 0 0 3 1 250 
9 0 4 0 0 2 1 250 
10 0 1 0 0 1 1 250 
0 0 0 0 0 0 1 345 
0 0 0 0 0 0 2 252 253 
3 0 0 1 0 0 1 254 
9 0 0 1 0 0 1 254 
1 0 0 4 0 0 2 257 255 
8 0 0 3 0 0 4 261 260 259 256 
7 0 0 3 0 0 1 258 
5 0 0 3 0 0 1 258 
10 0 0 3 0 0 1 262 
1 0 0 2 0 0 1 262 
9 0 0 3 0 0 1 262 
9 0 0 2 0 0 1 262 
0 0 0 0 0 0 5 285 297 309 321 333 
0 0 0 0 0 0 1 264 
10 1 1 0 0 0 1 265 
6 3 3 0 0 0 3 270 267 266 
8 5 3 0 0 0 1 268 
3 1 2 0 0 0 1 268 
10 2 3 0 0 0 2 271 269 
7 3 2 0 0 0 4 283 276 273 272 
7 3 4 0 0 0 2 272 271 
6 1 1 0 0 0 3 283 282 277 
9 3 4 0 0 0 1 274 
9 1 2 0 0 0 1 275 
3 1 3 0 0 0 2 282 277 
10 2 1 0 0 0 2 282 277 
1 2 2 0 0 0 2 282 277 
3 4 2 0 0 0 2 281 278 
5 3 1 0 0 0 2 280 279 
4 4 4 0 0 0 1 284 
6 4 3 0 0 0 1 284 
5 4 4 0 0 0 1 284 
7 1 2 0 0 0 1 284 
1 2 3 0 0 0 1 284 
0 0 0 0 0 0 1 345 
0 0 0 0 0 0 3 286 290 292 
7 0 0 0 1 0 2 289 287 
8 0 0 0 1 0 2 295 288 
4 0 0 0 3 0 1 291 
4 0 0 0 6 0 1 291 
1 0 0 0 3 0 1 291 
1 0 0 0 4 0 2 294 293 
2 0 0 0 2 0 2 295 293 
10 0 0 0 1 0 1 296 
3 0 0 0 2 0 1 296 
2 0 0 0 2 0 1 296 
0 0 0 0 0 0 1 345 
0 0 0 0 0 0 4 298 299 306 307 
3 1 0 0 0 0 1 300 
1 4 0 0 0 0 3 305 304 302 
4 2 0 0 0 0 2 304 301 
9 3 0 0 0 0 1 302 
3 1 0 0 0 0 1 303 
8 2 0 0 0 0 1 308 
4 2 0 0 0 0 1 308 
10 1 0 0 0 0 1 308 
3 5 0 0 0 0 1 308 
8 4 0 0 0 0 1 308 
0 0 0 0 0 0 1 345 
0 0 0 0 0 0 2 310 314 
1 0 1 0 0 0 3 316 313 311 
7 0 4 0 0 0 1 312 
1 0 1 0 0 0 3 319 318 315 
7 0 2 0 0 0 3 319 318 315 
6 0 4 0 0 0 2 318 315 
2 0 2 0 0 0 1 317 
7 0 4 0 0 0 1 317 
2 0 4 0 0 0 1 320 
4 0 2 0 0 0 1 320 
1 0 1 0 0 0 1 320 
0 0 0 0 0 0 1 345 
0 0 0 0 0 0 3 322 323 325 
6 0 0 0 1 0 3 331 328 326 
7 0 0 0 3 0 2 328 324 
3 0 0 0 2 0 1 326 
8 0 0 0 2 0 2 331 329 
6 0 0 0 1 0 1 327 
5 0 0 0 3 0 1 329 
7 0 0 0 6 0 1 330 
10 0 0 0 2 0 1 332 
6 0 0 0 2 0 1 332 
6 0 0 0 3 0 1 332 
0 0 0 0 0 0 1 345 
0 0 0 0 0 0 3 334 336 338 
3 0 1 0 0 0 2 342 335 
1 0 1 0 0 0 2 343 337 
4 0 3 0 0 0 3 342 341 340 
6 0 3 0 0 0 2 341 339 
9 0 3 0 0 0 2 342 340 
9 0 3 0 0 0 1 340 
7 0 2 0 0 0 1 344 
7 0 2 0 0 0 1 344 
2 0 2 0 0 0 1 344 
1 0 5 0 0 0 1 344 
0 0 0 0 0 0 1 345 
0 0 0 0 0 0 0 
